\ LP format - for model browsing. Use MPS format to capture full model detail.
Minimize
  1315 x[0,1] + 124 x[0,2] + 1216 x[0,3] + 1552 x[0,4] + 1403 x[0,5]
   + 1702 x[0,6] + 1746 x[0,7] + 1711 x[0,8] + 2404 x[0,9] + 2860 x[0,10]
   + 600 x[0,11] + 2501 x[0,12] + 1252 x[0,13] + 1403 x[0,14] + 144 x[1,2]
   + 1486 x[1,3] + 1581 x[1,4] + 2000 x[1,5] + 500 x[1,6] + 2441 x[1,7]
   + 400 x[1,8] + 1941 x[1,9] + 2137 x[1,10] + 1526 x[1,11] + 2692 x[1,12]
   + 1476 x[1,13] + 141 x[1,14] + 24 x[2,3] + 51 x[2,4] + 260 x[2,5]
   + 194 x[2,6] + 121 x[2,7] + 176 x[2,8] + 323 x[2,9] + 194 x[2,10]
   + 182 x[2,11] + 155 x[2,12] + 232 x[2,13] + 158 x[2,14] + 360 x[3,4]
   + 2601 x[3,5] + 1984 x[3,6] + 984 x[3,7] + 1802 x[3,8] + 3264 x[3,9]
   + 1860 x[3,10] + 1811 x[3,11] + 1334 x[3,12] + 2334 x[3,13]
   + 1627 x[3,14] + 2915 x[4,5] + 2061 x[4,6] + 1104 x[4,7] + 1838 x[4,8]
   + 3453 x[4,9] + 1526 x[4,10] + 2137 x[4,11] + 1118 x[4,12]
   + 2607 x[4,13] + 1720 x[4,14] + 2061 x[5,6] + 3104 x[5,7] + 2262 x[5,8]
   + 1627 x[5,9] + 4031 x[5,10] + 806 x[5,11] + 3905 x[5,12] + 583 x[5,13]
   + 1984 x[5,14] + 2941 x[6,7] + 300 x[6,8] + 1600 x[6,9] + 2400 x[6,10]
   + 1772 x[6,11] + 3162 x[6,12] + 1486 x[6,13] + 360 x[6,14] + 2778 x[7,8]
   + 4080 x[7,9] + 2500 x[7,10] + 2308 x[7,11] + 1081 x[7,12]
   + 2996 x[7,13] + 2580 x[7,14] + 1900 x[8,9] + 2100 x[8,10]
   + 1878 x[8,11] + 2920 x[8,12] + 1702 x[8,13] + 316 x[8,14]
   + 4000 x[9,10] + 2024 x[9,11] + 4569 x[9,12] + 1252 x[9,13]
   + 1824 x[9,14] + 3361 x[10,11] + 1811 x[10,12] + 3573 x[10,13]
   + 2220 x[10,14] + 3101 x[11,12] + 781 x[11,13] + 1565 x[11,14]
   + 3667 x[12,13] + 2830 x[12,14] + 1442 x[13,14]
Subject To
 Cardinality: x[0,1] + x[0,2] + x[0,3] + x[0,4] + x[0,5] + x[0,6] + x[0,7]
   + x[0,8] + x[0,9] + x[0,10] + x[0,11] + x[0,12] + x[0,13] + x[0,14]
   + x[1,2] + x[1,3] + x[1,4] + x[1,5] + x[1,6] + x[1,7] + x[1,8] + x[1,9]
   + x[1,10] + x[1,11] + x[1,12] + x[1,13] + x[1,14] + x[2,3] + x[2,4]
   + x[2,5] + x[2,6] + x[2,7] + x[2,8] + x[2,9] + x[2,10] + x[2,11]
   + x[2,12] + x[2,13] + x[2,14] + x[3,4] + x[3,5] + x[3,6] + x[3,7]
   + x[3,8] + x[3,9] + x[3,10] + x[3,11] + x[3,12] + x[3,13] + x[3,14]
   + x[4,5] + x[4,6] + x[4,7] + x[4,8] + x[4,9] + x[4,10] + x[4,11]
   + x[4,12] + x[4,13] + x[4,14] + x[5,6] + x[5,7] + x[5,8] + x[5,9]
   + x[5,10] + x[5,11] + x[5,12] + x[5,13] + x[5,14] + x[6,7] + x[6,8]
   + x[6,9] + x[6,10] + x[6,11] + x[6,12] + x[6,13] + x[6,14] + x[7,8]
   + x[7,9] + x[7,10] + x[7,11] + x[7,12] + x[7,13] + x[7,14] + x[8,9]
   + x[8,10] + x[8,11] + x[8,12] + x[8,13] + x[8,14] + x[9,10] + x[9,11]
   + x[9,12] + x[9,13] + x[9,14] + x[10,11] + x[10,12] + x[10,13]
   + x[10,14] + x[11,12] + x[11,13] + x[11,14] + x[12,13] + x[12,14]
   + x[13,14] = 14
 Flow_at_root: f[0,1] + f[0,2] + f[0,3] + f[0,4] + f[0,5] + f[0,6] + f[0,7]
   + f[0,8] + f[0,9] + f[0,10] + f[0,11] + f[0,12] + f[0,13] + f[0,14]
   - f[1,0] - f[2,0] - f[3,0] - f[4,0] - f[5,0] - f[6,0] - f[7,0] - f[8,0]
   - f[9,0] - f[10,0] - f[11,0] - f[12,0] - f[13,0] - f[14,0] = 14
 Balance_1: f[0,1] - f[1,0] - f[1,2] - f[1,3] - f[1,4] - f[1,5] - f[1,6]
   - f[1,7] - f[1,8] - f[1,9] - f[1,10] - f[1,11] - f[1,12] - f[1,13]
   - f[1,14] + f[2,1] + f[3,1] + f[4,1] + f[5,1] + f[6,1] + f[7,1] + f[8,1]
   + f[9,1] + f[10,1] + f[11,1] + f[12,1] + f[13,1] + f[14,1] = 1
 Balance_2: f[0,2] + f[1,2] - f[2,0] - f[2,1] - f[2,3] - f[2,4] - f[2,5]
   - f[2,6] - f[2,7] - f[2,8] - f[2,9] - f[2,10] - f[2,11] - f[2,12]
   - f[2,13] - f[2,14] + f[3,2] + f[4,2] + f[5,2] + f[6,2] + f[7,2]
   + f[8,2] + f[9,2] + f[10,2] + f[11,2] + f[12,2] + f[13,2] + f[14,2] = 1
 Balance_3: f[0,3] + f[1,3] + f[2,3] - f[3,0] - f[3,1] - f[3,2] - f[3,4]
   - f[3,5] - f[3,6] - f[3,7] - f[3,8] - f[3,9] - f[3,10] - f[3,11]
   - f[3,12] - f[3,13] - f[3,14] + f[4,3] + f[5,3] + f[6,3] + f[7,3]
   + f[8,3] + f[9,3] + f[10,3] + f[11,3] + f[12,3] + f[13,3] + f[14,3] = 1
 Balance_4: f[0,4] + f[1,4] + f[2,4] + f[3,4] - f[4,0] - f[4,1] - f[4,2]
   - f[4,3] - f[4,5] - f[4,6] - f[4,7] - f[4,8] - f[4,9] - f[4,10]
   - f[4,11] - f[4,12] - f[4,13] - f[4,14] + f[5,4] + f[6,4] + f[7,4]
   + f[8,4] + f[9,4] + f[10,4] + f[11,4] + f[12,4] + f[13,4] + f[14,4] = 1
 Balance_5: f[0,5] + f[1,5] + f[2,5] + f[3,5] + f[4,5] - f[5,0] - f[5,1]
   - f[5,2] - f[5,3] - f[5,4] - f[5,6] - f[5,7] - f[5,8] - f[5,9] - f[5,10]
   - f[5,11] - f[5,12] - f[5,13] - f[5,14] + f[6,5] + f[7,5] + f[8,5]
   + f[9,5] + f[10,5] + f[11,5] + f[12,5] + f[13,5] + f[14,5] = 1
 Balance_6: f[0,6] + f[1,6] + f[2,6] + f[3,6] + f[4,6] + f[5,6] - f[6,0]
   - f[6,1] - f[6,2] - f[6,3] - f[6,4] - f[6,5] - f[6,7] - f[6,8] - f[6,9]
   - f[6,10] - f[6,11] - f[6,12] - f[6,13] - f[6,14] + f[7,6] + f[8,6]
   + f[9,6] + f[10,6] + f[11,6] + f[12,6] + f[13,6] + f[14,6] = 1
 Balance_7: f[0,7] + f[1,7] + f[2,7] + f[3,7] + f[4,7] + f[5,7] + f[6,7]
   - f[7,0] - f[7,1] - f[7,2] - f[7,3] - f[7,4] - f[7,5] - f[7,6] - f[7,8]
   - f[7,9] - f[7,10] - f[7,11] - f[7,12] - f[7,13] - f[7,14] + f[8,7]
   + f[9,7] + f[10,7] + f[11,7] + f[12,7] + f[13,7] + f[14,7] = 1
 Balance_8: f[0,8] + f[1,8] + f[2,8] + f[3,8] + f[4,8] + f[5,8] + f[6,8]
   + f[7,8] - f[8,0] - f[8,1] - f[8,2] - f[8,3] - f[8,4] - f[8,5] - f[8,6]
   - f[8,7] - f[8,9] - f[8,10] - f[8,11] - f[8,12] - f[8,13] - f[8,14]
   + f[9,8] + f[10,8] + f[11,8] + f[12,8] + f[13,8] + f[14,8] = 1
 Balance_9: f[0,9] + f[1,9] + f[2,9] + f[3,9] + f[4,9] + f[5,9] + f[6,9]
   + f[7,9] + f[8,9] - f[9,0] - f[9,1] - f[9,2] - f[9,3] - f[9,4] - f[9,5]
   - f[9,6] - f[9,7] - f[9,8] - f[9,10] - f[9,11] - f[9,12] - f[9,13]
   - f[9,14] + f[10,9] + f[11,9] + f[12,9] + f[13,9] + f[14,9] = 1
 Balance_10: f[0,10] + f[1,10] + f[2,10] + f[3,10] + f[4,10] + f[5,10]
   + f[6,10] + f[7,10] + f[8,10] + f[9,10] - f[10,0] - f[10,1] - f[10,2]
   - f[10,3] - f[10,4] - f[10,5] - f[10,6] - f[10,7] - f[10,8] - f[10,9]
   - f[10,11] - f[10,12] - f[10,13] - f[10,14] + f[11,10] + f[12,10]
   + f[13,10] + f[14,10] = 1
 Balance_11: f[0,11] + f[1,11] + f[2,11] + f[3,11] + f[4,11] + f[5,11]
   + f[6,11] + f[7,11] + f[8,11] + f[9,11] + f[10,11] - f[11,0] - f[11,1]
   - f[11,2] - f[11,3] - f[11,4] - f[11,5] - f[11,6] - f[11,7] - f[11,8]
   - f[11,9] - f[11,10] - f[11,12] - f[11,13] - f[11,14] + f[12,11]
   + f[13,11] + f[14,11] = 1
 Balance_12: f[0,12] + f[1,12] + f[2,12] + f[3,12] + f[4,12] + f[5,12]
   + f[6,12] + f[7,12] + f[8,12] + f[9,12] + f[10,12] + f[11,12] - f[12,0]
   - f[12,1] - f[12,2] - f[12,3] - f[12,4] - f[12,5] - f[12,6] - f[12,7]
   - f[12,8] - f[12,9] - f[12,10] - f[12,11] - f[12,13] - f[12,14]
   + f[13,12] + f[14,12] = 1
 Balance_13: f[0,13] + f[1,13] + f[2,13] + f[3,13] + f[4,13] + f[5,13]
   + f[6,13] + f[7,13] + f[8,13] + f[9,13] + f[10,13] + f[11,13] + f[12,13]
   - f[13,0] - f[13,1] - f[13,2] - f[13,3] - f[13,4] - f[13,5] - f[13,6]
   - f[13,7] - f[13,8] - f[13,9] - f[13,10] - f[13,11] - f[13,12]
   - f[13,14] + f[14,13] = 1
 Balance_14: f[0,14] + f[1,14] + f[2,14] + f[3,14] + f[4,14] + f[5,14]
   + f[6,14] + f[7,14] + f[8,14] + f[9,14] + f[10,14] + f[11,14] + f[12,14]
   + f[13,14] - f[14,0] - f[14,1] - f[14,2] - f[14,3] - f[14,4] - f[14,5]
   - f[14,6] - f[14,7] - f[14,8] - f[14,9] - f[14,10] - f[14,11] - f[14,12]
   - f[14,13] = 1
 Force_f(0,1)_x(0,1): - 14 x[0,1] + f[0,1] <= 0
 Force_f(1,0)_x(0,1): - 14 x[0,1] + f[1,0] <= 0
 Force_f(0,2)_x(0,2): - 14 x[0,2] + f[0,2] <= 0
 Force_f(2,0)_x(0,2): - 14 x[0,2] + f[2,0] <= 0
 Force_f(0,3)_x(0,3): - 14 x[0,3] + f[0,3] <= 0
 Force_f(3,0)_x(0,3): - 14 x[0,3] + f[3,0] <= 0
 Force_f(0,4)_x(0,4): - 14 x[0,4] + f[0,4] <= 0
 Force_f(4,0)_x(0,4): - 14 x[0,4] + f[4,0] <= 0
 Force_f(0,5)_x(0,5): - 14 x[0,5] + f[0,5] <= 0
 Force_f(5,0)_x(0,5): - 14 x[0,5] + f[5,0] <= 0
 Force_f(0,6)_x(0,6): - 14 x[0,6] + f[0,6] <= 0
 Force_f(6,0)_x(0,6): - 14 x[0,6] + f[6,0] <= 0
 Force_f(0,7)_x(0,7): - 14 x[0,7] + f[0,7] <= 0
 Force_f(7,0)_x(0,7): - 14 x[0,7] + f[7,0] <= 0
 Force_f(0,8)_x(0,8): - 14 x[0,8] + f[0,8] <= 0
 Force_f(8,0)_x(0,8): - 14 x[0,8] + f[8,0] <= 0
 Force_f(0,9)_x(0,9): - 14 x[0,9] + f[0,9] <= 0
 Force_f(9,0)_x(0,9): - 14 x[0,9] + f[9,0] <= 0
 Force_f(0,10)_x(0,10): - 14 x[0,10] + f[0,10] <= 0
 Force_f(10,0)_x(0,10): - 14 x[0,10] + f[10,0] <= 0
 Force_f(0,11)_x(0,11): - 14 x[0,11] + f[0,11] <= 0
 Force_f(11,0)_x(0,11): - 14 x[0,11] + f[11,0] <= 0
 Force_f(0,12)_x(0,12): - 14 x[0,12] + f[0,12] <= 0
 Force_f(12,0)_x(0,12): - 14 x[0,12] + f[12,0] <= 0
 Force_f(0,13)_x(0,13): - 14 x[0,13] + f[0,13] <= 0
 Force_f(13,0)_x(0,13): - 14 x[0,13] + f[13,0] <= 0
 Force_f(0,14)_x(0,14): - 14 x[0,14] + f[0,14] <= 0
 Force_f(14,0)_x(0,14): - 14 x[0,14] + f[14,0] <= 0
 Force_f(1,2)_x(1,2): - 14 x[1,2] + f[1,2] <= 0
 Force_f(2,1)_x(1,2): - 14 x[1,2] + f[2,1] <= 0
 Force_f(1,3)_x(1,3): - 14 x[1,3] + f[1,3] <= 0
 Force_f(3,1)_x(1,3): - 14 x[1,3] + f[3,1] <= 0
 Force_f(1,4)_x(1,4): - 14 x[1,4] + f[1,4] <= 0
 Force_f(4,1)_x(1,4): - 14 x[1,4] + f[4,1] <= 0
 Force_f(1,5)_x(1,5): - 14 x[1,5] + f[1,5] <= 0
 Force_f(5,1)_x(1,5): - 14 x[1,5] + f[5,1] <= 0
 Force_f(1,6)_x(1,6): - 14 x[1,6] + f[1,6] <= 0
 Force_f(6,1)_x(1,6): - 14 x[1,6] + f[6,1] <= 0
 Force_f(1,7)_x(1,7): - 14 x[1,7] + f[1,7] <= 0
 Force_f(7,1)_x(1,7): - 14 x[1,7] + f[7,1] <= 0
 Force_f(1,8)_x(1,8): - 14 x[1,8] + f[1,8] <= 0
 Force_f(8,1)_x(1,8): - 14 x[1,8] + f[8,1] <= 0
 Force_f(1,9)_x(1,9): - 14 x[1,9] + f[1,9] <= 0
 Force_f(9,1)_x(1,9): - 14 x[1,9] + f[9,1] <= 0
 Force_f(1,10)_x(1,10): - 14 x[1,10] + f[1,10] <= 0
 Force_f(10,1)_x(1,10): - 14 x[1,10] + f[10,1] <= 0
 Force_f(1,11)_x(1,11): - 14 x[1,11] + f[1,11] <= 0
 Force_f(11,1)_x(1,11): - 14 x[1,11] + f[11,1] <= 0
 Force_f(1,12)_x(1,12): - 14 x[1,12] + f[1,12] <= 0
 Force_f(12,1)_x(1,12): - 14 x[1,12] + f[12,1] <= 0
 Force_f(1,13)_x(1,13): - 14 x[1,13] + f[1,13] <= 0
 Force_f(13,1)_x(1,13): - 14 x[1,13] + f[13,1] <= 0
 Force_f(1,14)_x(1,14): - 14 x[1,14] + f[1,14] <= 0
 Force_f(14,1)_x(1,14): - 14 x[1,14] + f[14,1] <= 0
 Force_f(2,3)_x(2,3): - 14 x[2,3] + f[2,3] <= 0
 Force_f(3,2)_x(2,3): - 14 x[2,3] + f[3,2] <= 0
 Force_f(2,4)_x(2,4): - 14 x[2,4] + f[2,4] <= 0
 Force_f(4,2)_x(2,4): - 14 x[2,4] + f[4,2] <= 0
 Force_f(2,5)_x(2,5): - 14 x[2,5] + f[2,5] <= 0
 Force_f(5,2)_x(2,5): - 14 x[2,5] + f[5,2] <= 0
 Force_f(2,6)_x(2,6): - 14 x[2,6] + f[2,6] <= 0
 Force_f(6,2)_x(2,6): - 14 x[2,6] + f[6,2] <= 0
 Force_f(2,7)_x(2,7): - 14 x[2,7] + f[2,7] <= 0
 Force_f(7,2)_x(2,7): - 14 x[2,7] + f[7,2] <= 0
 Force_f(2,8)_x(2,8): - 14 x[2,8] + f[2,8] <= 0
 Force_f(8,2)_x(2,8): - 14 x[2,8] + f[8,2] <= 0
 Force_f(2,9)_x(2,9): - 14 x[2,9] + f[2,9] <= 0
 Force_f(9,2)_x(2,9): - 14 x[2,9] + f[9,2] <= 0
 Force_f(2,10)_x(2,10): - 14 x[2,10] + f[2,10] <= 0
 Force_f(10,2)_x(2,10): - 14 x[2,10] + f[10,2] <= 0
 Force_f(2,11)_x(2,11): - 14 x[2,11] + f[2,11] <= 0
 Force_f(11,2)_x(2,11): - 14 x[2,11] + f[11,2] <= 0
 Force_f(2,12)_x(2,12): - 14 x[2,12] + f[2,12] <= 0
 Force_f(12,2)_x(2,12): - 14 x[2,12] + f[12,2] <= 0
 Force_f(2,13)_x(2,13): - 14 x[2,13] + f[2,13] <= 0
 Force_f(13,2)_x(2,13): - 14 x[2,13] + f[13,2] <= 0
 Force_f(2,14)_x(2,14): - 14 x[2,14] + f[2,14] <= 0
 Force_f(14,2)_x(2,14): - 14 x[2,14] + f[14,2] <= 0
 Force_f(3,4)_x(3,4): - 14 x[3,4] + f[3,4] <= 0
 Force_f(4,3)_x(3,4): - 14 x[3,4] + f[4,3] <= 0
 Force_f(3,5)_x(3,5): - 14 x[3,5] + f[3,5] <= 0
 Force_f(5,3)_x(3,5): - 14 x[3,5] + f[5,3] <= 0
 Force_f(3,6)_x(3,6): - 14 x[3,6] + f[3,6] <= 0
 Force_f(6,3)_x(3,6): - 14 x[3,6] + f[6,3] <= 0
 Force_f(3,7)_x(3,7): - 14 x[3,7] + f[3,7] <= 0
 Force_f(7,3)_x(3,7): - 14 x[3,7] + f[7,3] <= 0
 Force_f(3,8)_x(3,8): - 14 x[3,8] + f[3,8] <= 0
 Force_f(8,3)_x(3,8): - 14 x[3,8] + f[8,3] <= 0
 Force_f(3,9)_x(3,9): - 14 x[3,9] + f[3,9] <= 0
 Force_f(9,3)_x(3,9): - 14 x[3,9] + f[9,3] <= 0
 Force_f(3,10)_x(3,10): - 14 x[3,10] + f[3,10] <= 0
 Force_f(10,3)_x(3,10): - 14 x[3,10] + f[10,3] <= 0
 Force_f(3,11)_x(3,11): - 14 x[3,11] + f[3,11] <= 0
 Force_f(11,3)_x(3,11): - 14 x[3,11] + f[11,3] <= 0
 Force_f(3,12)_x(3,12): - 14 x[3,12] + f[3,12] <= 0
 Force_f(12,3)_x(3,12): - 14 x[3,12] + f[12,3] <= 0
 Force_f(3,13)_x(3,13): - 14 x[3,13] + f[3,13] <= 0
 Force_f(13,3)_x(3,13): - 14 x[3,13] + f[13,3] <= 0
 Force_f(3,14)_x(3,14): - 14 x[3,14] + f[3,14] <= 0
 Force_f(14,3)_x(3,14): - 14 x[3,14] + f[14,3] <= 0
 Force_f(4,5)_x(4,5): - 14 x[4,5] + f[4,5] <= 0
 Force_f(5,4)_x(4,5): - 14 x[4,5] + f[5,4] <= 0
 Force_f(4,6)_x(4,6): - 14 x[4,6] + f[4,6] <= 0
 Force_f(6,4)_x(4,6): - 14 x[4,6] + f[6,4] <= 0
 Force_f(4,7)_x(4,7): - 14 x[4,7] + f[4,7] <= 0
 Force_f(7,4)_x(4,7): - 14 x[4,7] + f[7,4] <= 0
 Force_f(4,8)_x(4,8): - 14 x[4,8] + f[4,8] <= 0
 Force_f(8,4)_x(4,8): - 14 x[4,8] + f[8,4] <= 0
 Force_f(4,9)_x(4,9): - 14 x[4,9] + f[4,9] <= 0
 Force_f(9,4)_x(4,9): - 14 x[4,9] + f[9,4] <= 0
 Force_f(4,10)_x(4,10): - 14 x[4,10] + f[4,10] <= 0
 Force_f(10,4)_x(4,10): - 14 x[4,10] + f[10,4] <= 0
 Force_f(4,11)_x(4,11): - 14 x[4,11] + f[4,11] <= 0
 Force_f(11,4)_x(4,11): - 14 x[4,11] + f[11,4] <= 0
 Force_f(4,12)_x(4,12): - 14 x[4,12] + f[4,12] <= 0
 Force_f(12,4)_x(4,12): - 14 x[4,12] + f[12,4] <= 0
 Force_f(4,13)_x(4,13): - 14 x[4,13] + f[4,13] <= 0
 Force_f(13,4)_x(4,13): - 14 x[4,13] + f[13,4] <= 0
 Force_f(4,14)_x(4,14): - 14 x[4,14] + f[4,14] <= 0
 Force_f(14,4)_x(4,14): - 14 x[4,14] + f[14,4] <= 0
 Force_f(5,6)_x(5,6): - 14 x[5,6] + f[5,6] <= 0
 Force_f(6,5)_x(5,6): - 14 x[5,6] + f[6,5] <= 0
 Force_f(5,7)_x(5,7): - 14 x[5,7] + f[5,7] <= 0
 Force_f(7,5)_x(5,7): - 14 x[5,7] + f[7,5] <= 0
 Force_f(5,8)_x(5,8): - 14 x[5,8] + f[5,8] <= 0
 Force_f(8,5)_x(5,8): - 14 x[5,8] + f[8,5] <= 0
 Force_f(5,9)_x(5,9): - 14 x[5,9] + f[5,9] <= 0
 Force_f(9,5)_x(5,9): - 14 x[5,9] + f[9,5] <= 0
 Force_f(5,10)_x(5,10): - 14 x[5,10] + f[5,10] <= 0
 Force_f(10,5)_x(5,10): - 14 x[5,10] + f[10,5] <= 0
 Force_f(5,11)_x(5,11): - 14 x[5,11] + f[5,11] <= 0
 Force_f(11,5)_x(5,11): - 14 x[5,11] + f[11,5] <= 0
 Force_f(5,12)_x(5,12): - 14 x[5,12] + f[5,12] <= 0
 Force_f(12,5)_x(5,12): - 14 x[5,12] + f[12,5] <= 0
 Force_f(5,13)_x(5,13): - 14 x[5,13] + f[5,13] <= 0
 Force_f(13,5)_x(5,13): - 14 x[5,13] + f[13,5] <= 0
 Force_f(5,14)_x(5,14): - 14 x[5,14] + f[5,14] <= 0
 Force_f(14,5)_x(5,14): - 14 x[5,14] + f[14,5] <= 0
 Force_f(6,7)_x(6,7): - 14 x[6,7] + f[6,7] <= 0
 Force_f(7,6)_x(6,7): - 14 x[6,7] + f[7,6] <= 0
 Force_f(6,8)_x(6,8): - 14 x[6,8] + f[6,8] <= 0
 Force_f(8,6)_x(6,8): - 14 x[6,8] + f[8,6] <= 0
 Force_f(6,9)_x(6,9): - 14 x[6,9] + f[6,9] <= 0
 Force_f(9,6)_x(6,9): - 14 x[6,9] + f[9,6] <= 0
 Force_f(6,10)_x(6,10): - 14 x[6,10] + f[6,10] <= 0
 Force_f(10,6)_x(6,10): - 14 x[6,10] + f[10,6] <= 0
 Force_f(6,11)_x(6,11): - 14 x[6,11] + f[6,11] <= 0
 Force_f(11,6)_x(6,11): - 14 x[6,11] + f[11,6] <= 0
 Force_f(6,12)_x(6,12): - 14 x[6,12] + f[6,12] <= 0
 Force_f(12,6)_x(6,12): - 14 x[6,12] + f[12,6] <= 0
 Force_f(6,13)_x(6,13): - 14 x[6,13] + f[6,13] <= 0
 Force_f(13,6)_x(6,13): - 14 x[6,13] + f[13,6] <= 0
 Force_f(6,14)_x(6,14): - 14 x[6,14] + f[6,14] <= 0
 Force_f(14,6)_x(6,14): - 14 x[6,14] + f[14,6] <= 0
 Force_f(7,8)_x(7,8): - 14 x[7,8] + f[7,8] <= 0
 Force_f(8,7)_x(7,8): - 14 x[7,8] + f[8,7] <= 0
 Force_f(7,9)_x(7,9): - 14 x[7,9] + f[7,9] <= 0
 Force_f(9,7)_x(7,9): - 14 x[7,9] + f[9,7] <= 0
 Force_f(7,10)_x(7,10): - 14 x[7,10] + f[7,10] <= 0
 Force_f(10,7)_x(7,10): - 14 x[7,10] + f[10,7] <= 0
 Force_f(7,11)_x(7,11): - 14 x[7,11] + f[7,11] <= 0
 Force_f(11,7)_x(7,11): - 14 x[7,11] + f[11,7] <= 0
 Force_f(7,12)_x(7,12): - 14 x[7,12] + f[7,12] <= 0
 Force_f(12,7)_x(7,12): - 14 x[7,12] + f[12,7] <= 0
 Force_f(7,13)_x(7,13): - 14 x[7,13] + f[7,13] <= 0
 Force_f(13,7)_x(7,13): - 14 x[7,13] + f[13,7] <= 0
 Force_f(7,14)_x(7,14): - 14 x[7,14] + f[7,14] <= 0
 Force_f(14,7)_x(7,14): - 14 x[7,14] + f[14,7] <= 0
 Force_f(8,9)_x(8,9): - 14 x[8,9] + f[8,9] <= 0
 Force_f(9,8)_x(8,9): - 14 x[8,9] + f[9,8] <= 0
 Force_f(8,10)_x(8,10): - 14 x[8,10] + f[8,10] <= 0
 Force_f(10,8)_x(8,10): - 14 x[8,10] + f[10,8] <= 0
 Force_f(8,11)_x(8,11): - 14 x[8,11] + f[8,11] <= 0
 Force_f(11,8)_x(8,11): - 14 x[8,11] + f[11,8] <= 0
 Force_f(8,12)_x(8,12): - 14 x[8,12] + f[8,12] <= 0
 Force_f(12,8)_x(8,12): - 14 x[8,12] + f[12,8] <= 0
 Force_f(8,13)_x(8,13): - 14 x[8,13] + f[8,13] <= 0
 Force_f(13,8)_x(8,13): - 14 x[8,13] + f[13,8] <= 0
 Force_f(8,14)_x(8,14): - 14 x[8,14] + f[8,14] <= 0
 Force_f(14,8)_x(8,14): - 14 x[8,14] + f[14,8] <= 0
 Force_f(9,10)_x(9,10): - 14 x[9,10] + f[9,10] <= 0
 Force_f(10,9)_x(9,10): - 14 x[9,10] + f[10,9] <= 0
 Force_f(9,11)_x(9,11): - 14 x[9,11] + f[9,11] <= 0
 Force_f(11,9)_x(9,11): - 14 x[9,11] + f[11,9] <= 0
 Force_f(9,12)_x(9,12): - 14 x[9,12] + f[9,12] <= 0
 Force_f(12,9)_x(9,12): - 14 x[9,12] + f[12,9] <= 0
 Force_f(9,13)_x(9,13): - 14 x[9,13] + f[9,13] <= 0
 Force_f(13,9)_x(9,13): - 14 x[9,13] + f[13,9] <= 0
 Force_f(9,14)_x(9,14): - 14 x[9,14] + f[9,14] <= 0
 Force_f(14,9)_x(9,14): - 14 x[9,14] + f[14,9] <= 0
 Force_f(10,11)_x(10,11): - 14 x[10,11] + f[10,11] <= 0
 Force_f(11,10)_x(10,11): - 14 x[10,11] + f[11,10] <= 0
 Force_f(10,12)_x(10,12): - 14 x[10,12] + f[10,12] <= 0
 Force_f(12,10)_x(10,12): - 14 x[10,12] + f[12,10] <= 0
 Force_f(10,13)_x(10,13): - 14 x[10,13] + f[10,13] <= 0
 Force_f(13,10)_x(10,13): - 14 x[10,13] + f[13,10] <= 0
 Force_f(10,14)_x(10,14): - 14 x[10,14] + f[10,14] <= 0
 Force_f(14,10)_x(10,14): - 14 x[10,14] + f[14,10] <= 0
 Force_f(11,12)_x(11,12): - 14 x[11,12] + f[11,12] <= 0
 Force_f(12,11)_x(11,12): - 14 x[11,12] + f[12,11] <= 0
 Force_f(11,13)_x(11,13): - 14 x[11,13] + f[11,13] <= 0
 Force_f(13,11)_x(11,13): - 14 x[11,13] + f[13,11] <= 0
 Force_f(11,14)_x(11,14): - 14 x[11,14] + f[11,14] <= 0
 Force_f(14,11)_x(11,14): - 14 x[11,14] + f[14,11] <= 0
 Force_f(12,13)_x(12,13): - 14 x[12,13] + f[12,13] <= 0
 Force_f(13,12)_x(12,13): - 14 x[12,13] + f[13,12] <= 0
 Force_f(12,14)_x(12,14): - 14 x[12,14] + f[12,14] <= 0
 Force_f(14,12)_x(12,14): - 14 x[12,14] + f[14,12] <= 0
 Force_f(13,14)_x(13,14): - 14 x[13,14] + f[13,14] <= 0
 Force_f(14,13)_x(13,14): - 14 x[13,14] + f[14,13] <= 0
 maxHubConnections: x[0,2] + x[1,2] + x[2,3] + x[2,4] + x[2,5] + x[2,6]
   + x[2,7] + x[2,8] + x[2,9] + x[2,10] + x[2,11] + x[2,12] + x[2,13]
   + x[2,14] <= 4
Bounds
 f[0,1] <= 15
 f[0,2] <= 15
 f[0,3] <= 15
 f[0,4] <= 15
 f[0,5] <= 15
 f[0,6] <= 15
 f[0,7] <= 15
 f[0,8] <= 15
 f[0,9] <= 15
 f[0,10] <= 15
 f[0,11] <= 15
 f[0,12] <= 15
 f[0,13] <= 15
 f[0,14] <= 15
 f[1,0] <= 15
 f[1,2] <= 15
 f[1,3] <= 15
 f[1,4] <= 15
 f[1,5] <= 15
 f[1,6] <= 15
 f[1,7] <= 15
 f[1,8] <= 15
 f[1,9] <= 15
 f[1,10] <= 15
 f[1,11] <= 15
 f[1,12] <= 15
 f[1,13] <= 15
 f[1,14] <= 15
 f[2,0] <= 15
 f[2,1] <= 15
 f[2,3] <= 15
 f[2,4] <= 15
 f[2,5] <= 15
 f[2,6] <= 15
 f[2,7] <= 15
 f[2,8] <= 15
 f[2,9] <= 15
 f[2,10] <= 15
 f[2,11] <= 15
 f[2,12] <= 15
 f[2,13] <= 15
 f[2,14] <= 15
 f[3,0] <= 15
 f[3,1] <= 15
 f[3,2] <= 15
 f[3,4] <= 15
 f[3,5] <= 15
 f[3,6] <= 15
 f[3,7] <= 15
 f[3,8] <= 15
 f[3,9] <= 15
 f[3,10] <= 15
 f[3,11] <= 15
 f[3,12] <= 15
 f[3,13] <= 15
 f[3,14] <= 15
 f[4,0] <= 15
 f[4,1] <= 15
 f[4,2] <= 15
 f[4,3] <= 15
 f[4,5] <= 15
 f[4,6] <= 15
 f[4,7] <= 15
 f[4,8] <= 15
 f[4,9] <= 15
 f[4,10] <= 15
 f[4,11] <= 15
 f[4,12] <= 15
 f[4,13] <= 15
 f[4,14] <= 15
 f[5,0] <= 15
 f[5,1] <= 15
 f[5,2] <= 15
 f[5,3] <= 15
 f[5,4] <= 15
 f[5,6] <= 15
 f[5,7] <= 15
 f[5,8] <= 15
 f[5,9] <= 15
 f[5,10] <= 15
 f[5,11] <= 15
 f[5,12] <= 15
 f[5,13] <= 15
 f[5,14] <= 15
 f[6,0] <= 15
 f[6,1] <= 15
 f[6,2] <= 15
 f[6,3] <= 15
 f[6,4] <= 15
 f[6,5] <= 15
 f[6,7] <= 15
 f[6,8] <= 15
 f[6,9] <= 15
 f[6,10] <= 15
 f[6,11] <= 15
 f[6,12] <= 15
 f[6,13] <= 15
 f[6,14] <= 15
 f[7,0] <= 15
 f[7,1] <= 15
 f[7,2] <= 15
 f[7,3] <= 15
 f[7,4] <= 15
 f[7,5] <= 15
 f[7,6] <= 15
 f[7,8] <= 15
 f[7,9] <= 15
 f[7,10] <= 15
 f[7,11] <= 15
 f[7,12] <= 15
 f[7,13] <= 15
 f[7,14] <= 15
 f[8,0] <= 15
 f[8,1] <= 15
 f[8,2] <= 15
 f[8,3] <= 15
 f[8,4] <= 15
 f[8,5] <= 15
 f[8,6] <= 15
 f[8,7] <= 15
 f[8,9] <= 15
 f[8,10] <= 15
 f[8,11] <= 15
 f[8,12] <= 15
 f[8,13] <= 15
 f[8,14] <= 15
 f[9,0] <= 15
 f[9,1] <= 15
 f[9,2] <= 15
 f[9,3] <= 15
 f[9,4] <= 15
 f[9,5] <= 15
 f[9,6] <= 15
 f[9,7] <= 15
 f[9,8] <= 15
 f[9,10] <= 15
 f[9,11] <= 15
 f[9,12] <= 15
 f[9,13] <= 15
 f[9,14] <= 15
 f[10,0] <= 15
 f[10,1] <= 15
 f[10,2] <= 15
 f[10,3] <= 15
 f[10,4] <= 15
 f[10,5] <= 15
 f[10,6] <= 15
 f[10,7] <= 15
 f[10,8] <= 15
 f[10,9] <= 15
 f[10,11] <= 15
 f[10,12] <= 15
 f[10,13] <= 15
 f[10,14] <= 15
 f[11,0] <= 15
 f[11,1] <= 15
 f[11,2] <= 15
 f[11,3] <= 15
 f[11,4] <= 15
 f[11,5] <= 15
 f[11,6] <= 15
 f[11,7] <= 15
 f[11,8] <= 15
 f[11,9] <= 15
 f[11,10] <= 15
 f[11,12] <= 15
 f[11,13] <= 15
 f[11,14] <= 15
 f[12,0] <= 15
 f[12,1] <= 15
 f[12,2] <= 15
 f[12,3] <= 15
 f[12,4] <= 15
 f[12,5] <= 15
 f[12,6] <= 15
 f[12,7] <= 15
 f[12,8] <= 15
 f[12,9] <= 15
 f[12,10] <= 15
 f[12,11] <= 15
 f[12,13] <= 15
 f[12,14] <= 15
 f[13,0] <= 15
 f[13,1] <= 15
 f[13,2] <= 15
 f[13,3] <= 15
 f[13,4] <= 15
 f[13,5] <= 15
 f[13,6] <= 15
 f[13,7] <= 15
 f[13,8] <= 15
 f[13,9] <= 15
 f[13,10] <= 15
 f[13,11] <= 15
 f[13,12] <= 15
 f[13,14] <= 15
 f[14,0] <= 15
 f[14,1] <= 15
 f[14,2] <= 15
 f[14,3] <= 15
 f[14,4] <= 15
 f[14,5] <= 15
 f[14,6] <= 15
 f[14,7] <= 15
 f[14,8] <= 15
 f[14,9] <= 15
 f[14,10] <= 15
 f[14,11] <= 15
 f[14,12] <= 15
 f[14,13] <= 15
Binaries
 x[0,1] x[0,2] x[0,3] x[0,4] x[0,5] x[0,6] x[0,7] x[0,8] x[0,9] x[0,10]
 x[0,11] x[0,12] x[0,13] x[0,14] x[1,2] x[1,3] x[1,4] x[1,5] x[1,6] x[1,7]
 x[1,8] x[1,9] x[1,10] x[1,11] x[1,12] x[1,13] x[1,14] x[2,3] x[2,4] x[2,5]
 x[2,6] x[2,7] x[2,8] x[2,9] x[2,10] x[2,11] x[2,12] x[2,13] x[2,14] x[3,4]
 x[3,5] x[3,6] x[3,7] x[3,8] x[3,9] x[3,10] x[3,11] x[3,12] x[3,13] x[3,14]
 x[4,5] x[4,6] x[4,7] x[4,8] x[4,9] x[4,10] x[4,11] x[4,12] x[4,13] x[4,14]
 x[5,6] x[5,7] x[5,8] x[5,9] x[5,10] x[5,11] x[5,12] x[5,13] x[5,14] x[6,7]
 x[6,8] x[6,9] x[6,10] x[6,11] x[6,12] x[6,13] x[6,14] x[7,8] x[7,9]
 x[7,10] x[7,11] x[7,12] x[7,13] x[7,14] x[8,9] x[8,10] x[8,11] x[8,12]
 x[8,13] x[8,14] x[9,10] x[9,11] x[9,12] x[9,13] x[9,14] x[10,11] x[10,12]
 x[10,13] x[10,14] x[11,12] x[11,13] x[11,14] x[12,13] x[12,14] x[13,14]
End
